data/OOEBPP/R500/BPP_500_300_0.1_0.8_8.txt.ins
500
300 300
1 240 678
2 240 69
3 239 292
4 239 951
5 238 843
6 238 257
7 238 696
8 237 320
9 237 381
10 237 592
11 237 75
12 237 199
13 236 941
14 236 89
15 234 623
16 234 908
17 233 454
18 233 425
19 232 655
20 232 549
21 231 387
22 231 239
23 230 157
24 230 598
25 229 454
26 229 16
27 228 73
28 227 918
29 227 557
30 227 717
31 227 910
32 227 729
33 227 535
34 226 480
35 226 826
36 226 702
37 225 671
38 225 201
39 225 164
40 224 187
41 223 102
42 223 111
43 223 917
44 222 550
45 221 688
46 221 737
47 221 42
48 221 311
49 220 636
50 220 882
51 219 692
52 219 752
53 219 182
54 219 243
55 217 990
56 217 257
57 217 763
58 217 588
59 217 577
60 216 498
61 216 728
62 215 176
63 215 728
64 215 715
65 215 773
66 214 364
67 214 215
68 213 838
69 213 717
70 213 44
71 213 836
72 213 145
73 211 185
74 211 229
75 211 807
76 210 446
77 209 945
78 208 398
79 208 360
80 207 877
81 207 697
82 206 536
83 206 595
84 206 410
85 206 629
86 206 116
87 205 3
88 205 768
89 205 340
90 205 189
91 204 598
92 204 586
93 203 534
94 203 290
95 203 520
96 202 381
97 202 957
98 202 357
99 202 778
100 201 945
101 201 350
102 201 862
103 200 853
104 200 975
105 199 492
106 199 31
107 198 187
108 198 197
109 197 52
110 197 644
111 196 918
112 196 34
113 195 264
114 194 760
115 194 44
116 194 719
117 194 952
118 193 731
119 193 209
120 193 930
121 192 837
122 191 40
123 190 229
124 190 822
125 190 877
126 190 825
127 189 997
128 189 562
129 189 155
130 188 547
131 187 267
132 187 150
133 187 125
134 186 827
135 186 913
136 186 93
137 186 651
138 185 441
139 185 392
140 185 56
141 184 595
142 184 526
143 184 463
144 184 90
145 183 983
146 183 629
147 183 371
148 182 177
149 182 72
150 182 643
151 182 747
152 182 614
153 181 304
154 181 292
155 181 634
156 181 30
157 180 683
158 180 370
159 180 204
160 179 947
161 179 347
162 179 969
163 179 26
164 179 339
165 178 274
166 177 834
167 176 21
168 176 843
169 176 9
170 176 559
171 175 108
172 175 347
173 175 818
174 174 336
175 174 871
176 174 30
177 174 304
178 174 299
179 174 7
180 173 365
181 173 178
182 173 519
183 172 936
184 171 441
185 171 468
186 171 740
187 170 802
188 169 35
189 169 363
190 168 952
191 168 413
192 168 700
193 168 90
194 168 565
195 167 43
196 167 30
197 167 879
198 167 814
199 166 981
200 166 361
201 166 778
202 165 692
203 165 207
204 163 927
205 162 59
206 161 266
207 161 310
208 160 736
209 160 827
210 159 775
211 159 959
212 159 395
213 158 370
214 157 303
215 156 380
216 156 762
217 156 395
218 156 521
219 155 883
220 154 831
221 154 384
222 154 873
223 153 728
224 153 995
225 152 629
226 152 549
227 151 233
228 150 326
229 150 91
230 150 164
231 149 164
232 148 134
233 148 821
234 147 94
235 146 291
236 146 453
237 146 371
238 146 511
239 145 383
240 145 201
241 145 786
242 144 766
243 143 922
244 142 740
245 142 265
246 142 629
247 141 714
248 141 26
249 141 749
250 140 947
251 140 853
252 140 259
253 139 875
254 139 205
255 139 172
256 138 585
257 136 541
258 136 425
259 136 386
260 135 798
261 134 519
262 134 269
263 134 83
264 134 863
265 132 339
266 132 128
267 131 870
268 131 311
269 131 725
270 131 456
271 131 234
272 131 147
273 130 327
274 130 361
275 130 675
276 129 880
277 129 962
278 129 965
279 129 581
280 128 299
281 127 285
282 127 585
283 126 709
284 126 225
285 126 403
286 126 207
287 126 0
288 126 752
289 125 881
290 125 569
291 125 171
292 124 557
293 124 843
294 123 472
295 123 366
296 122 14
297 122 149
298 121 75
299 120 423
300 120 320
301 119 634
302 118 429
303 118 675
304 118 274
305 117 717
306 117 387
307 116 676
308 116 251
309 116 248
310 115 105
311 115 815
312 115 162
313 114 593
314 114 579
315 114 974
316 114 179
317 114 743
318 113 379
319 113 902
320 113 832
321 113 737
322 111 562
323 111 936
324 110 98
325 110 81
326 110 710
327 108 959
328 106 180
329 105 591
330 105 373
331 103 793
332 103 509
333 102 182
334 102 861
335 101 762
336 101 201
337 101 544
338 101 974
339 101 892
340 101 98
341 98 874
342 98 831
343 98 56
344 97 752
345 97 136
346 97 905
347 96 325
348 96 993
349 95 833
350 95 187
351 94 771
352 94 992
353 93 204
354 93 34
355 92 354
356 91 420
357 91 152
358 91 748
359 90 229
360 90 780
361 90 914
362 89 207
363 89 162
364 89 171
365 89 791
366 88 897
367 88 183
368 87 383
369 87 201
370 86 169
371 85 320
372 84 828
373 84 797
374 83 701
375 83 203
376 83 6
377 82 691
378 82 897
379 82 741
380 82 772
381 82 748
382 82 593
383 81 187
384 80 852
385 80 489
386 79 844
387 79 141
388 78 54
389 77 405
390 77 323
391 77 276
392 77 366
393 77 660
394 76 607
395 76 333
396 75 75
397 74 813
398 74 999
399 73 229
400 73 330
401 73 233
402 73 448
403 73 621
404 73 795
405 73 443
406 72 523
407 72 442
408 71 130
409 70 814
410 68 936
411 68 804
412 68 969
413 67 848
414 67 946
415 67 891
416 66 478
417 66 385
418 66 577
419 65 635
420 64 463
421 64 562
422 63 787
423 63 887
424 62 130
425 62 483
426 62 411
427 61 285
428 61 985
429 61 190
430 60 43
431 59 61
432 58 479
433 57 271
434 55 635
435 55 541
436 54 794
437 54 892
438 54 890
439 53 218
440 53 623
441 53 342
442 53 541
443 53 741
444 53 492
445 53 130
446 52 141
447 52 0
448 52 477
449 52 189
450 51 215
451 51 626
452 51 218
453 50 779
454 50 137
455 49 215
456 49 815
457 48 111
458 48 642
459 48 821
460 48 102
461 46 337
462 46 452
463 46 194
464 45 967
465 45 743
466 45 61
467 45 371
468 44 514
469 44 462
470 43 359
471 43 519
472 43 246
473 43 256
474 43 105
475 42 695
476 42 755
477 42 997
478 42 104
479 41 753
480 41 896
481 41 927
482 40 842
483 40 574
484 40 357
485 39 300
486 39 123
487 38 189
488 37 939
489 37 754
490 36 422
491 36 622
492 35 153
493 35 357
494 33 912
495 32 950
496 32 494
497 31 774
498 31 535
499 30 209
500 30 291
