results/OOEBPP/BPP_500_300_0.1_0.8_8.txt.ins.log
136,135.164,6.63036,OPT,5607,0,0,AI,0,0.00735294,3.44853,0.288537,6.08512,0,2,0,73,71
